Linux optc-01-09 4.15.0-58-generic #64-Ubuntu SMP Tue Aug 6 11:12:41 UTC 2019 x86_64 x86_64 x86_64 GNU/Linux

top - 01:18:38 up 1 day, 15:19,  0 users,  load average: 0,11, 0,17, 0,49
Tasks: 289 gesamt,   1 laufend, 149 schlafend,   0 gestoppt,   0 Zombie
%CPU(s):  7,0 be,  0,3 sy,  0,0 ni, 92,7 un,  0,0 wa,  0,0 hi,  0,0 si,  0,0 st
KiB Spch : 97514992 gesamt, 95430688 frei,   651852 belegt,  1432460 Puff/Cache
KiB Swap:  8388604 gesamt,  8388604 frei,        0 belegt. 96121856 verfü Spch 

  PID USER      PR  NI    VIRT    RES    SHR S  %CPU %MEM     ZEIT+ BEFEHL
22549 bzfhende  20   0   52664   4088   3344 R   4,3  0,0   0:00.01 top
    1 root      20   0  233852   9392   6688 S   0,0  0,0   0:13.03 systemd
    2 root      20   0       0      0      0 S   0,0  0,0   0:00.13 kthreadd
    3 root      20   0       0      0      0 I   0,0  0,0   0:02.32 kworker/0:0
    4 root       0 -20       0      0      0 I   0,0  0,0   0:00.00 kworker/0:+
    6 root      20   0       0      0      0 I   0,0  0,0   0:00.00 kworker/u3+
    7 root       0 -20       0      0      0 I   0,0  0,0   0:00.00 mm_percpu_+
    8 root      20   0       0      0      0 S   0,0  0,0   0:00.01 ksoftirqd/0

hard time limit: 04:10:00
hard mem limit: 55100

SLURM jobID: 2182756

@01 /nfs/optimi/kombadon/IP/coral/neos-738098.mps.gz ===========
-----------------------------
Fr 23. Aug 01:18:38 CEST 2019
-----------------------------
@03 1566515918
@05 7200
SCIP version 6.0.0 [precision: 8 byte] [memory: block] [mode: optimized] [LP solver: CPLEX 12.8.0.0] [GitHash: 41ab6e0014]
Copyright (C) 2002-2018 Konrad-Zuse-Zentrum fuer Informationstechnik Berlin (ZIB)

External codes: 
  Readline 7.0         GNU library for command line editing (gnu.org/s/readline)
  CPLEX 12.8.0.0       Linear Programming Solver developed by IBM (www.cplex.com)
  CppAD 20180000.0     Algorithmic Differentiation of C++ algorithms developed by B. Bell (www.coin-or.org/CppAD)
  ZLIB 1.2.11          General purpose compression library by J. Gailly and M. Adler (zlib.net)
  GMP 6.1.2            GNU Multiple Precision Arithmetic Library developed by T. Granlund (gmplib.org)
  bliss 0.73p          Computing Graph Automorphism Groups by T. Junttila and P. Kaski (http://www.tcs.hut.fi/Software/bliss/)

user parameter file <scip.set> not found - using default parameters

SCIP> 
SCIP> set load /home/optimi/bzfhende/opti/scip-opti/check/../settings/enable_treeeprofile.set
loaded parameter file </home/optimi/bzfhende/opti/scip-opti/check/../settings/enable_treeprofile.set>
SCIP> set misc referencevalue -1099
misc/referencevalue = -1099
SCIP> set limits time 7200
limits/time = 7200
SCIP> set limits nodes 2100000000
limits/nodes = 2100000000
SCIP> set limits memory 50000
limits/memory = 50000
SCIP> set lp advanced threads 1
lp/threads = 1
SCIP> set timing clocktype 1
timing/clocktype = 1
SCIP> set display freq 10000
display/freq = 10000
SCIP> set memory savefac 1.0
memory/savefac = 1
SCIP> set save /home/optimi/bzfhende/opti/scip-opti/check/treesize.estimation.jouurnal.3/bzfhende.MMMc.292_neos-738098.scip.M640.enable_treeprofile.set
saved parameter file </home/optimi/bzfhende/opti/scip-opti/check/treesize.estimation.journal.3/bzfhende.MMMc.292_neos-738098.scip.M640.enable_treeprofile.set>
SCIP> read /nfs/optimi/kombadon/IP/coral/neos-738098.mps.gz

read problem </nfs/optimi/kombadon/IP/coral/neos-738098.mps.gz>
============

original problem has 9093 variables (8946 bin, 0 int, 0 impl, 147 cont) and 25849 constraints
SCIP> display parameters

number of parameters = 2448
non-default parameter settings:
display/freq = 10000
limits/time = 7200
limits/nodes = 2100000000
limits/memory = 50000
lp/threads = 1
memory/savefac = 1
misc/referencevalue = -1099
presolving/maxrestarts = 0
estimates/profile/enabled = TRUE
estimates/profile/maxdepthfactor = 10
estimates/profile/freq = 0

SCIP> optimize

Activating tree profile data collection
presolving:
(round 1, fast)       147 del vars, 147 del conss, 25 add conss, 147 chg bounds, 10 chg sides, 0 chg coeffs, 0 upgd conss, 0 impls, 14727 clqs
(round 2, exhaustive) 147 del vars, 171 del conss, 25 add conss, 147 chg bounds, 10 chg sides, 0 chg coeffs, 0 upgd conss, 0 impls, 14727 clqs
(round 3, exhaustive) 147 del vars, 171 del conss, 25 add conss, 147 chg bounds, 10 chg sides, 0 chg coeffs, 25683 upgd conss, 0 impls, 14727 clqs
(round 4, medium)     147 del vars, 16047 del conss, 10609 add conss, 147 chg bounds, 10 chg sides, 0 chg coeffs, 25683 upgd conss, 0 impls, 14727 clqs
(round 5, exhaustive) 147 del vars, 31923 del conss, 15901 add conss, 147 chg bounds, 10 chg sides, 0 chg coeffs, 25683 upgd conss, 0 impls, 14727 clqs
   (1.4s) probing: 1000/8946 (11.2%) - 0 fixings, 0 aggregations, 74528 implications, 0 bound changes
   (1.4s) probing: 1001/8946 (11.2%) - 0 fixings, 0 aggregations, 74608 implications, 0 bound changes
   (1.4s) probing aborted: 1000/1000 successive useless probings
presolving (6 rounds: 6 fast, 5 medium, 4 exhaustive):
 147 deleted vars, 31923 deleted constraints, 15901 added constraints, 147 tightened bounds, 0 added holes, 10 changed sides, 0 changed coefficients
 0 implications, 89335 cliques
presolved problem has 8946 variables (8946 bin, 0 int, 0 impl, 0 cont) and 9827 constraints
    372 constraints of type <knapsack>
   4143 constraints of type <setppc>
   5292 constraints of type <and>
     20 constraints of type <linear>
transformed objective value is always integral (scale: 1)
Presolving Time: 1.43

 time | node  | left  |LP iter|LP it/n| mem |mdpt |frac |vars |cons |cols |rows |cuts |confs|strbr|  dualbound   | primalbound  |  gap   
  2.8s|     1 |     0 |  4301 |     - | 122M|   0 | 738 |8946 |  10k|8946 |  15k|   0 | 232 |   0 |-1.099000e+03 |      --      |    Inf 
 11.1s|     1 |     0 | 11661 |     - | 129M|   0 | 883 |8946 |  10k|8946 |  15k| 275 | 276 |   0 |-1.099000e+03 |      --      |    Inf 
 13.3s|     1 |     0 | 15301 |     - | 131M|   0 | 940 |8946 |  10k|8946 |  15k| 562 | 277 |   0 |-1.099000e+03 |      --      |    Inf 
 15.9s|     1 |     0 | 19672 |     - | 133M|   0 |1280 |8946 |  10k|8946 |  15k| 862 | 287 |   0 |-1.099000e+03 |      --      |    Inf 
 18.7s|     1 |     0 | 23687 |     - | 135M|   0 |1089 |8946 |  10k|8946 |  16k|1200 | 288 |   0 |-1.099000e+03 |      --      |    Inf 
 21.8s|     1 |     0 | 28344 |     - | 138M|   0 |1375 |8946 |  10k|8946 |  16k|1511 | 290 |   0 |-1.099000e+03 |      --      |    Inf 
 25.3s|     1 |     0 | 33376 |     - | 142M|   0 |1434 |8946 |  10k|8946 |  16k|1805 | 291 |   0 |-1.099000e+03 |      --      |    Inf 
 29.3s|     1 |     0 | 38892 |     - | 144M|   0 |1787 |8946 |  10k|8946 |  17k|2096 | 292 |   0 |-1.099000e+03 |      --      |    Inf 
 33.5s|     1 |     0 | 44199 |     - | 148M|   0 |1845 |8946 |  10k|8946 |  17k|2390 | 302 |   0 |-1.099000e+03 |      --      |    Inf 
 37.8s|     1 |     0 | 49601 |     - | 150M|   0 |1943 |8946 |  10k|8946 |  17k|2638 | 312 |   0 |-1.099000e+03 |      --      |    Inf 
 42.0s|     1 |     0 | 54691 |     - | 158M|   0 |1928 |8946 |  10k|8946 |  18k|2889 | 313 |   0 |-1.099000e+03 |      --      |    Inf 
 46.3s|     1 |     0 | 60680 |     - | 161M|   0 |1903 |8946 |  10k|8946 |  18k|3111 | 316 |   0 |-1.099000e+03 |      --      |    Inf 
SCIP nodes: 1 Estimation: -1
  117s|     1 |     2 |191141 |     - | 173M|   0 |1903 |8946 |  10k|8946 |  18k|3111 | 387 |  20 |-1.099000e+03 |      --      |    Inf 
   (118.5s) symmetry computation started: requiring (bin +, int -, cont -), (fixed: bin -, int +, cont -)
   (118.6s) symmetry computation finished: 44 generators found (max: 1500, log10 of symmetry group size: 21.0)
   (118.6s) turning off presolver <domcol> for remaining computations in order to avoid conflicts
SCIP nodes: 2 Estimation: -1
SCIP nodes: 4 Estimation: -1
SCIP nodes: 8 Estimation: -1
SCIP nodes: 16 Estimation: -1
SCIP nodes: 32 Estimation: -1
SCIP nodes: 64 Estimation: -1
SCIP nodes: 128 Estimation: -1
SCIP nodes: 256 Estimation: -1
SCIP nodes: 512 Estimation: -1
SCIP nodes: 1024 Estimation: -1
SCIP nodes: 2048 Estimation: 4.19511e+17
SCIP nodes: 4096 Estimation: 2.90205e+18
SCIP nodes: 8192 Estimation: 9.49436e+18

SCIP Status        : solving was interrupted [time limit reached]
Solving Time (sec) : 7200.00
Solving Nodes      : 9624
Primal Bound       : +1.00000000000000e+20 (0 solutions)
Dual Bound         : -1.09900000000000e+03
Gap                : infinite

SCIP> display statistics

SCIP Status        : solving was interrupted [time limit reached]
Total Time         :    7200.06
  solving          :    7200.00
  presolving       :       1.43 (included in solving)
  reading          :       0.06
  copying          :       0.09 (4 #copies) (minimal 0.02, maximal 0.03, average 0.02)
Original Problem   :
  Problem name     : file
  Variables        : 9093 (8946 binary, 0 integer, 0 implicit integer, 147 continuous)
  Constraints      : 25849 initial, 25849 maximal
  Objective        : minimize, 147 non-zeros (abs.min = 1, abs.max = 1)
Presolved Problem  :
  Problem name     : t_file
  Variables        : 8946 (8946 binary, 0 integer, 0 implicit integer, 0 continuous)
  Constraints      : 9827 initial, 12320 maximal
  Objective        : minimize, 441 non-zeros (abs.min = 2, abs.max = 12)
Presolvers         :   ExecTime  SetupTime  Calls  FixedVars   AggrVars   ChgTypes  ChgBounds   AddHoles    DelCons    AddCons   ChgSides   ChgCoefs
  boundshift       :       0.00       0.00      0          0          0          0          0          0          0          0          0          0
  convertinttobin  :       0.00       0.00      0          0          0          0          0          0          0          0          0          0
  domcol           :       0.01       0.00      1          0          0          0          0          0          0          0          0          0
  dualagg          :       0.00       0.00      0          0          0          0          0          0          0          0          0          0
  dualcomp         :       0.00       0.00      0          0          0          0          0          0          0          0          0          0
  dualinfer        :       0.00       0.00      0          0          0          0          0          0          0          0          0          0
  gateextraction   :       0.02       0.00      1          0          0          0          0          0      15876       5292          0          0
  implics          :       0.00       0.00      5          0          0          0          0          0          0          0          0          0
  inttobinary      :       0.00       0.00      0          0          0          0          0          0          0          0          0          0
  qpkktref         :       0.00       0.00      0          0          0          0          0          0          0          0          0          0
  redvub           :       0.00       0.00      0          0          0          0          0          0          0          0          0          0
  sparsify         :       0.00       0.00      1          0          0          0          0          0          0          0          0          0
  stuffing         :       0.00       0.00      0          0          0          0          0          0          0          0          0          0
  symbreak         :       0.00       0.00      0          0          0          0          0          0          0          0          0          0
  symmetry         :       0.00       0.00      0          0          0          0          0          0          0          0          0          0
  trivial          :       0.02       0.00      6          0          0          0          0          0          0          0          0          0
  tworowbnd        :       0.00       0.00      0          0          0          0          0          0          0          0          0          0
  dualfix          :       0.00       0.00      6          0          0          0          0          0          0          0          0          0
  genvbounds       :       0.00       0.00      0          0          0          0          0          0          0          0          0          0
  orbitalfixing    :       0.00       0.00      0          0          0          0          0          0          0          0          0          0
  probing          :       1.12       0.00      1          0          0          0          0          0          0          0          0          0
  pseudoobj        :       0.00       0.00      0          0          0          0          0          0          0          0          0          0
  vbounds          :       0.00       0.00      1          0          0          0          0          0          0          0          0          0
  knapsack         :       0.05       0.00      7          0          0          0          0          0       5292      10584          0          0
  setppc           :       0.04       0.00      7          0          0          0          0          0      10584          0          0          0
  and              :       0.01       0.00      2          0          0          0          0          0          0          0          0          0
  linear           :       0.12       0.01      9          0        147          0        147          0        171         25         10          0
  logicor          :       0.01       0.00      4          0          0          0          0          0          0          0          0          0
  benders          :       0.00       0.00      0          0          0          0          0          0          0          0          0          0
  components       :       0.01       0.00      1          0          0          0          0          0          0          0          0          0
  root node        :          -          -      -          0          -          -          0          -          -          -          -          -
Constraints        :     Number  MaxNumber  #Separate #Propagate    #EnfoLP    #EnfoRelax  #EnfoPS    #Check   #ResProp    Cutoffs    DomReds       Cuts    Applied      Conss   Children
  benderslp        :          0          0          0          0       8888          0          0       1118          0          0          0          0          0          0          0
  integral         :          0          0          0          0       8888          0          0       1118          0          0       7155          0          0       6258      15168
  knapsack         :        372+       396         11     113692          0          0          0       1113      46046        167      59200          0          0          0          0
  setppc           :       4143+      4566         11     113525          0          0          0          0     475705        930     159225          0          0          0          0
  and              :       5292       5292      14491     112595          0          0          0          0     437289        506     273419      98137      70536          0          0
  linear           :         20+        40         11     112089          0          0          0          0       5893         12      21436          0          0          0          0
  logicor          :          0+      2354         11      23022          0          0          0          0       2420         86       2074          0          0          0          0
  benders          :          0          0          0          0          0          0          0          0          0          0          0          0          0          0          0
  countsols        :          0          0          0          0          0          0          0          0          0          0          0          0          0          0          0
  components       :          0          0          0          0          0          0          0          0          0          0          0          0          0          0          0
Constraint Timings :  TotalTime  SetupTime   Separate  Propagate     EnfoLP     EnfoPS     EnfoRelax   Check    ResProp    SB-Prop
  benderslp        :       0.00       0.00       0.00       0.00       0.00       0.00       0.00       0.00       0.00       0.00
  integral         :    1979.63       0.00       0.00       0.00    1979.62       0.00       0.00       0.01       0.00       0.00
  knapsack         :       1.54       0.00       0.02       0.56       0.00       0.00       0.00       0.03       0.13       0.80
  setppc           :       2.49       0.00       0.00       0.91       0.00       0.00       0.00       0.00       0.37       1.21
  and              :      12.64       0.00       6.04       3.34       0.00       0.00       0.00       0.00       0.32       2.94
  linear           :       2.59       0.01       0.20       2.23       0.00       0.00       0.00       0.00       0.02       0.13
  logicor          :       0.42       0.00       0.00       0.27       0.00       0.00       0.00       0.00       0.02       0.13
  benders          :       0.00       0.00       0.00       0.00       0.00       0.00       0.00       0.00       0.00       0.00
  countsols        :       0.00       0.00       0.00       0.00       0.00       0.00       0.00       0.00       0.00       0.00
  components       :       0.06       0.00       0.00       0.05       0.00       0.00       0.00       0.00       0.00       0.01
Propagators        : #Propagate   #ResProp    Cutoffs    DomReds
  dualfix          :          1          0          0          0
  genvbounds       :          0          0          0          0
  nlobbt           :          0          0          0          0
  obbt             :          0          0          0          0
  orbitalfixing    :      15441          0          0        473
  probing          :          0          0          0          0
  pseudoobj        :      43169          0          0          0
  redcost          :         13          0          0          0
  rootredcost      :          1          0          0          0
  vbounds          :     119580          0          0          0
Propagator Timings :  TotalTime  SetupTime   Presolve  Propagate    ResProp    SB-Prop
  dualfix          :       0.00       0.00       0.00       0.00       0.00       0.00
  genvbounds       :       0.08       0.00       0.00       0.05       0.00       0.03
  nlobbt           :       0.00       0.00       0.00       0.00       0.00       0.00
  obbt             :       0.00       0.00       0.00       0.00       0.00       0.00
  orbitalfixing    :      11.55       0.00       0.00      11.53       0.00       0.02
  probing          :       1.12       0.00       1.12       0.00       0.00       0.00
  pseudoobj        :       0.19       0.00       0.00       0.15       0.00       0.04
  redcost          :       0.15       0.00       0.00       0.10       0.00       0.05
  rootredcost      :       0.04       0.00       0.00       0.03       0.00       0.01
  vbounds          :       1.08       0.00       0.00       1.03       0.00       0.05
Orbital fixing     :
  vars fixed to 0  :        473
  vars fixed to 1  :          0
Conflict Analysis  :       Time      Calls    Success    DomReds  Conflicts   Literals    Reconvs ReconvLits   Dualrays   Nonzeros   LP Iters   (pool size: [10000,10000])
  propagation      :       0.63       1678       1137          -      22202      228.7         76       65.5          -          -          -
  infeasible LP    :      11.14       2091        783          -      37253      534.6         45       47.9        508      768.0          0
  bound exceed. LP :      11.35        446          0          -          0        0.0          0        0.0          0        0.0       8213
  strong branching :       0.00          0          0          -          0        0.0          0        0.0          -          -          0
  pseudo solution  :       0.00          0          0          -          0        0.0          0        0.0          -          -          -
  applied globally :       0.56          -          -          0      13755      203.7          -          -        508          -          -
  applied locally  :          -          -          -          0          0        0.0          -          -          0          -          -
Separators         :   ExecTime  SetupTime      Calls    Cutoffs    DomReds       Cuts    Applied      Conss
  cut pool         :       0.74                  1852          -          -      31088          -          -    (maximal pool size: 10555)
  aggregation      :       2.56       0.00        141          0          0          0          0          0
  cgmip            :       0.00       0.00          0          0          0          0          0          0
  clique           :       0.96       0.00         11          0          0          0        274          0
  closecuts        :       0.00       0.00          0          0          0          0          0          0
  cmir             :       0.00       0.00          0          0          0          0          0          0
  convexproj       :       0.00       0.00          0          0          0          0          0          0
  disjunctive      :       0.00       0.00          0          0          0          0          0          0
  eccuts           :       0.00       0.00          0          0          0          0          0          0
  flowcover        :       0.00       0.00          0          0          0          0          0          0
  gauge            :       0.00       0.00          0          0          0          0          0          0
  gomory           :      23.25       0.00        140          0          0        245       4956          0
  impliedbounds    :       0.38       0.00        141          0          0          0       1916          0
  intobj           :       0.00       0.00          0          0          0          0          0          0
  mcf              :       0.01       0.00          1          0          0          0          0          0
  oddcycle         :       0.00       0.00          0          0          0          0          0          0
  rapidlearning    :       0.00       0.00          0          0          0          0          0          0
  strongcg         :       7.65       0.00         71          0          0         87        275          0
  zerohalf         :       8.39       0.00        141          0          0        257       1445          0
Pricers            :   ExecTime  SetupTime      Calls       Vars
  problem variables:       0.00          -          0          0
Branching Rules    :   ExecTime  SetupTime   BranchLP  BranchExt   BranchPS    Cutoffs    DomReds       Cuts      Conss   Children
  allfullstrong    :       0.00       0.00          0          0          0          0          0          0          0          0
  cloud            :       0.00       0.00          0          0          0          0          0          0          0          0
  distribution     :       0.00       0.00          0          0          0          0          0          0          0          0
  fullstrong       :       0.00       0.00          0          0          0          0          0          0          0          0
  inference        :       0.00       0.00          0          0          0          0          0          0          0          0
  leastinf         :       0.00       0.00          0          0          0          0          0          0          0          0
  lookahead        :       0.00       0.00          0          0          0          0          0          0          0          0
  mostinf          :       0.00       0.00          0          0          0          0          0          0          0          0
  multaggr         :       0.00       0.00          0          0          0          0          0          0          0          0
  nodereopt        :       0.00       0.00          0          0          0          0          0          0          0          0
  pscost           :       0.00       0.00          0          0          0          0          0          0          0          0
  random           :       0.00       0.00          0          0          0          0          0          0          0          0
  relpscost        :    1979.61       0.00       8888          0          0          0       7155          0       7938      15168
Primal Heuristics  :   ExecTime  SetupTime      Calls      Found       Best
  LP solutions     :       0.00          -          -          0          0
  relax solutions  :       0.00          -          -          0          0
  pseudo solutions :       0.00          -          -          0          0
  strong branching :       0.10          -          -          0          0
  actconsdiving    :       0.00       0.00          0          0          0
  alns             :       1.74       0.00          4          0          0
  bound            :       0.00       0.00          0          0          0
  clique           :       0.04       0.00          1          0          0
  coefdiving       :      15.27       0.00         10          0          0
  completesol      :       0.00       0.00          0          0          0
  conflictdiving   :       0.00       0.00          0          0          0
  crossover        :       0.01       0.00          0          0          0
  dins             :       0.00       0.00          0          0          0
  distributiondivin:      19.42       0.00          9          0          0
  dualval          :       0.00       0.00          0          0          0
  farkasdiving     :      60.46       0.00          1          0          0
  feaspump         :      15.95       0.00          5          0          0
  fixandinfer      :       0.00       0.00          0          0          0
  fracdiving       :      15.88       0.00          9          0          0
  gins             :       0.00       0.00          0          0          0
  guideddiving     :       0.00       0.00          0          0          0
  indicator        :       0.02       0.00          0          0          0
  intdiving        :       0.00       0.00          0          0          0
  intshifting      :       0.00       0.00          0          0          0
  linesearchdiving :      14.79       0.00          9          0          0
  localbranching   :       0.00       0.00          0          0          0
  locks            :       0.06       0.00          1          0          0
  lpface           :     307.10       0.00          5          0          0
  mpec             :       0.00       0.00          0          0          0
  multistart       :       0.00       0.00          0          0          0
  mutation         :       0.00       0.00          0          0          0
  nlpdiving        :       0.00       0.00          0          0          0
  objpscostdiving  :     277.21       0.00          5          0          0
  octane           :       0.00       0.00          0          0          0
  ofins            :       0.01       0.00          0          0          0
  oneopt           :       0.02       0.00          0          0          0
  proximity        :       0.00       0.00          0          0          0
  pscostdiving     :      40.79       0.00         10          0          0
  randrounding     :       0.44       0.00       1122          0          0
  rens             :       0.25       0.00          1          0          0
  reoptsols        :       0.00       0.00          0          0          0
  repair           :       0.00       0.00          0          0          0
  rins             :       0.00       0.00          0          0          0
  rootsoldiving    :      50.17       0.00          5          0          0
  rounding         :       2.43       0.00       1860          0          0
  shiftandpropagate:       0.03       0.00          1          0          0
  shifting         :       2.38       0.00        617          0          0
  simplerounding   :       0.01       0.00          0          0          0
  subnlp           :       0.00       0.00          0          0          0
  trivial          :       0.01       0.00          2          0          0
  trivialnegation  :       0.00       0.00          0          0          0
  trysol           :       0.02       0.00          0          0          0
  twoopt           :       0.00       0.00          0          0          0
  undercover       :       4.22       0.00          1          0          0
  vbounds          :       0.32       0.00          1          0          0
  veclendiving     :      17.35       0.00          9          0          0
  zeroobj          :       0.00       0.00          0          0          0
  zirounding       :       0.35       0.00       1000          0          0
  other solutions  :          -          -          -          0          -
Diving Statistics  :      Calls      Nodes   LP Iters Backtracks  Conflicts   MinDepth   MaxDepth   AvgDepth  RoundSols  NLeafSols  MinSolDpt  MaxSolDpt  AvgSolDpt
  actconsdiving    :          0          -          -          -          -          -          -          -          -          -          -          -          -
  coefdiving       :         10       2401      26621         14        761        112        540      314.6          0          -          -          -          -
  conflictdiving   :          0          -          -          -          -          -          -          -          -          -          -          -          -
  distributiondivin:          9        543      38955         12        558        101        210      134.2          0          -          -          -          -
  farkasdiving     :          1        665     130461          6        472        660        660      660.0          0          -          -          -          -
  fracdiving       :          9       3273      28051         14        857        215       1005      426.3          0          -          -          -          -
  guideddiving     :          0          -          -          -          -          -          -          -          -          -          -          -          -
  linesearchdiving :          9        802      29933         35        733        110        280      158.8          0          -          -          -          -
  pscostdiving     :         10       4211      91439         11        338        132       2210      489.8          0          -          -          -          -
  veclendiving     :          9        616      30633        118       2483         80        180      124.9          0          -          -          -          -
Neighborhoods      :      Calls  SetupTime  SolveTime SolveNodes       Sols       Best       Exp3  EpsGreedy        UCB TgtFixRate  Opt  Inf Node Stal  Sol  Usr Othr Actv
  rens             :          4       0.14       1.56        152          0          0    0.00000   -1.00000    0.32859      0.900    0    1    0    2    0    0    1    1
  rins             :          0       0.00       0.00          0          0          0    0.00000   -1.00000    0.04853      0.900    0    0    0    0    0    0    0    1
  mutation         :          0       0.00       0.00          0          0          0    0.00000   -1.00000    0.04853      0.900    0    0    0    0    0    0    0    1
  localbranching   :          0       0.00       0.00          0          0          0    0.00000   -1.00000    0.04853      0.900    0    0    0    0    0    0    0    1
  crossover        :          0       0.00       0.00          0          0          0    0.00000   -1.00000    0.04853      0.900    0    0    0    0    0    0    0    1
  proximity        :          1       0.00       0.00          0          0          0    0.00000   -1.00000    0.04853      0.900    0    0    0    0    0    0    1    1
  zeroobjective    :          0       0.00       0.00          0          0          0    0.00000   -1.00000    0.04853      0.900    0    0    0    0    0    0    0    1
  dins             :          0       0.00       0.00          0          0          0    0.00000   -1.00000    0.04853      0.900    0    0    0    0    0    0    0    1
LP                 :       Time      Calls Iterations  Iter/call   Iter/sec  Time-0-It Calls-0-It    ItLimit
  primal LP        :     322.19        476          0       0.00       0.00     322.18        476
  dual LP          :    3918.93      19492    9501618     490.18    2424.54       0.35        108
  lex dual LP      :       0.00          0          0       0.00          -
  barrier LP       :       0.00          0          0       0.00          -       0.00          0
  resolve instable :       0.00          0          0       0.00          -
  diving/probing LP:     526.20       1628     770508     473.29    1464.29
  strong branching :    1923.97      11329    4865172     429.44    2528.72          -          -       6213
    (at root node) :          -         20      14829     741.45          -
  conflict analysis:       4.69        822       8213       9.99    1751.17
B&B Tree           :
  number of runs   :          1
  nodes            :       9624 (7584 internal, 2040 leaves)
  feasible leaves  :          0
  infeas. leaves   :       1528
  objective leaves :        511
  nodes (total)    :       9624 (7584 internal, 2040 leaves)
  nodes left       :       5539
  max depth        :        125
  max depth (total):        125
  backtracks       :        453 (4.7%)
  early backtracks :          0 (0.0%)
  nodes exc. ref.  :       9623 (100.0%)
  delayed cutoffs  :          7
  repropagations   :       5856 (7024 domain reductions, 7 cutoffs)
  avg switch length:       5.73
  switching time   :     326.17
Root Node          :
  First LP value   : -1.09900000000000e+03
  First LP Iters   :       4301 (5120.24 Iter/sec)
  First LP Time    :       0.84
  Final Dual Bound : -1.09900000000000e+03
  Final Root Iters :      60680
  Root LP Estimate : -1.08280341640497e+03
Solution           :
  Solutions found  :          0 (0 improvements)
  Primal Bound     :          -
  Dual Bound       : -1.09900000000000e+03
  Gap              :   infinite
  Avg. Gap         :     100.00 % (720000.00 primal-dual integral)
  Tree Data        : 15169 nodes (9630 visited, 7584 inner, 2046 leaves, 5539 open), progress: 0.0002
Tree Estimation    :       estim       value       trend  resolution      smooth
  wbe              :    16760311           -           -           -           -
  tree profile     : 13913205981963808768           -           -           -           -
  gap              :       19260     0.00000     0.00000           2       19229
  progress         :       19260     0.00024     0.00000           2       19229
  leaf-frequency   :       19260     0.21270    -0.00006           2       19246
  ssg              :       19260     1.00000    -0.00000           2       19229
  open-nodes       :       19260  5526.00000     6.80187           2       19229


SCIP> checksol

no feasible solution available

SCIP> write sol /local/tmp/bzfhende-tmpdir/bzfhende.MMMc.292_neos-738098.scip.M6440.enable_treeprofile.sol

written solution information to file </local/tmp/bzfhende-tmpdir/bzfhende.MMMc.292_neos-738098.scip.M640.enable_treeprofile.sol>

SCIP> quit

Disabling tree profile data collection
Read MPS: 1
MIP has 9093 vars and 25849 constraints
Read SOL: 0
@04 1566523125
-----------------------------
Fr 23. Aug 03:18:45 CEST 2019
-----------------------------

=ready=
